(set-logic HORN)
(declare-datatypes ((Nat_371 0)) (((Z_1267 ) (S_309 (unS_430 Nat_371)))))
(declare-fun diseqNat_371 (Nat_371 Nat_371) Bool)
(declare-fun unS_431 (Nat_371 Nat_371) Bool)
(declare-fun isZ_288 (Nat_371) Bool)
(declare-fun isS_288 (Nat_371) Bool)
(assert (forall ((x_34564 Nat_371))
	(unS_431 x_34564 (S_309 x_34564))))
(assert (isZ_288 Z_1267))
(assert (forall ((x_34566 Nat_371))
	(isS_288 (S_309 x_34566))))
(assert (forall ((x_34567 Nat_371))
	(diseqNat_371 Z_1267 (S_309 x_34567))))
(assert (forall ((x_34568 Nat_371))
	(diseqNat_371 (S_309 x_34568) Z_1267)))
(assert (forall ((x_34569 Nat_371) (x_34570 Nat_371))
	(=> (diseqNat_371 x_34569 x_34570)
	    (diseqNat_371 (S_309 x_34569) (S_309 x_34570)))))
(declare-fun add_231 (Nat_371 Nat_371 Nat_371) Bool)
(declare-fun minus_226 (Nat_371 Nat_371 Nat_371) Bool)
(declare-fun le_215 (Nat_371 Nat_371) Bool)
(declare-fun ge_215 (Nat_371 Nat_371) Bool)
(declare-fun lt_230 (Nat_371 Nat_371) Bool)
(declare-fun gt_218 (Nat_371 Nat_371) Bool)
(declare-fun mult_215 (Nat_371 Nat_371 Nat_371) Bool)
(declare-fun div_215 (Nat_371 Nat_371 Nat_371) Bool)
(declare-fun mod_217 (Nat_371 Nat_371 Nat_371) Bool)
(assert (forall ((y_1369 Nat_371))
	(add_231 y_1369 Z_1267 y_1369)))
(assert (forall ((x_34562 Nat_371) (y_1369 Nat_371) (r_262 Nat_371))
	(=> (add_231 r_262 x_34562 y_1369)
	    (add_231 (S_309 r_262) (S_309 x_34562) y_1369))))
(assert (forall ((y_1369 Nat_371))
	(minus_226 Z_1267 Z_1267 y_1369)))
(assert (forall ((x_34562 Nat_371) (y_1369 Nat_371) (r_262 Nat_371))
	(=> (minus_226 r_262 x_34562 y_1369)
	    (minus_226 (S_309 r_262) (S_309 x_34562) y_1369))))
(assert (forall ((y_1369 Nat_371))
	(le_215 Z_1267 y_1369)))
(assert (forall ((x_34562 Nat_371) (y_1369 Nat_371))
	(=> (le_215 x_34562 y_1369)
	    (le_215 (S_309 x_34562) (S_309 y_1369)))))
(assert (forall ((y_1369 Nat_371))
	(ge_215 y_1369 Z_1267)))
(assert (forall ((x_34562 Nat_371) (y_1369 Nat_371))
	(=> (ge_215 x_34562 y_1369)
	    (ge_215 (S_309 x_34562) (S_309 y_1369)))))
(assert (forall ((y_1369 Nat_371))
	(lt_230 Z_1267 (S_309 y_1369))))
(assert (forall ((x_34562 Nat_371) (y_1369 Nat_371))
	(=> (lt_230 x_34562 y_1369)
	    (lt_230 (S_309 x_34562) (S_309 y_1369)))))
(assert (forall ((y_1369 Nat_371))
	(gt_218 (S_309 y_1369) Z_1267)))
(assert (forall ((x_34562 Nat_371) (y_1369 Nat_371))
	(=> (gt_218 x_34562 y_1369)
	    (gt_218 (S_309 x_34562) (S_309 y_1369)))))
(assert (forall ((y_1369 Nat_371))
	(mult_215 Z_1267 Z_1267 y_1369)))
(assert (forall ((x_34562 Nat_371) (y_1369 Nat_371) (r_262 Nat_371) (z_1268 Nat_371))
	(=>	(and (mult_215 r_262 x_34562 y_1369)
			(add_231 z_1268 r_262 y_1369))
		(mult_215 z_1268 (S_309 x_34562) y_1369))))
(assert (forall ((x_34562 Nat_371) (y_1369 Nat_371))
	(=> (lt_230 x_34562 y_1369)
	    (div_215 Z_1267 x_34562 y_1369))))
(assert (forall ((x_34562 Nat_371) (y_1369 Nat_371) (r_262 Nat_371) (z_1268 Nat_371))
	(=>	(and (ge_215 x_34562 y_1369)
			(minus_226 z_1268 x_34562 y_1369)
			(div_215 r_262 z_1268 y_1369))
		(div_215 (S_309 r_262) x_34562 y_1369))))
(assert (forall ((x_34562 Nat_371) (y_1369 Nat_371))
	(=> (lt_230 x_34562 y_1369)
	    (mod_217 x_34562 x_34562 y_1369))))
(assert (forall ((x_34562 Nat_371) (y_1369 Nat_371) (r_262 Nat_371) (z_1268 Nat_371))
	(=>	(and (ge_215 x_34562 y_1369)
			(minus_226 z_1268 x_34562 y_1369)
			(mod_217 r_262 z_1268 y_1369))
		(mod_217 r_262 x_34562 y_1369))))
(declare-datatypes ((Bool_215 0)) (((false_215 ) (true_215 ))))
(declare-fun diseqBool_98 (Bool_215 Bool_215) Bool)
(declare-fun isfalse_98 (Bool_215) Bool)
(declare-fun istrue_98 (Bool_215) Bool)
(assert (isfalse_98 false_215))
(assert (istrue_98 true_215))
(assert (diseqBool_98 false_215 true_215))
(assert (diseqBool_98 true_215 false_215))
(declare-fun and_215 (Bool_215 Bool_215 Bool_215) Bool)
(declare-fun or_219 (Bool_215 Bool_215 Bool_215) Bool)
(declare-fun hence_215 (Bool_215 Bool_215 Bool_215) Bool)
(declare-fun not_218 (Bool_215 Bool_215) Bool)
(assert (and_215 false_215 false_215 false_215))
(assert (and_215 false_215 true_215 false_215))
(assert (and_215 false_215 false_215 true_215))
(assert (and_215 true_215 true_215 true_215))
(assert (or_219 false_215 false_215 false_215))
(assert (or_219 true_215 true_215 false_215))
(assert (or_219 true_215 false_215 true_215))
(assert (or_219 true_215 true_215 true_215))
(assert (hence_215 true_215 false_215 false_215))
(assert (hence_215 false_215 true_215 false_215))
(assert (hence_215 true_215 false_215 true_215))
(assert (hence_215 true_215 true_215 true_215))
(assert (not_218 true_215 false_215))
(assert (not_218 false_215 true_215))
(declare-datatypes ((list_149 0)) (((nil_168 ) (cons_149 (head_298 Nat_371) (tail_298 list_149)))))
(declare-fun diseqlist_149 (list_149 list_149) Bool)
(declare-fun head_299 (Nat_371 list_149) Bool)
(declare-fun tail_299 (list_149 list_149) Bool)
(declare-fun isnil_168 (list_149) Bool)
(declare-fun iscons_149 (list_149) Bool)
(assert (forall ((x_34574 Nat_371) (x_34575 list_149))
	(head_299 x_34574 (cons_149 x_34574 x_34575))))
(assert (forall ((x_34574 Nat_371) (x_34575 list_149))
	(tail_299 x_34575 (cons_149 x_34574 x_34575))))
(assert (isnil_168 nil_168))
(assert (forall ((x_34577 Nat_371) (x_34578 list_149))
	(iscons_149 (cons_149 x_34577 x_34578))))
(assert (forall ((x_34579 Nat_371) (x_34580 list_149))
	(diseqlist_149 nil_168 (cons_149 x_34579 x_34580))))
(assert (forall ((x_34581 Nat_371) (x_34582 list_149))
	(diseqlist_149 (cons_149 x_34581 x_34582) nil_168)))
(assert (forall ((x_34583 Nat_371) (x_34584 list_149) (x_34585 Nat_371) (x_34586 list_149))
	(=> (diseqNat_371 x_34583 x_34585)
	    (diseqlist_149 (cons_149 x_34583 x_34584) (cons_149 x_34585 x_34586)))))
(assert (forall ((x_34583 Nat_371) (x_34584 list_149) (x_34585 Nat_371) (x_34586 list_149))
	(=> (diseqlist_149 x_34584 x_34586)
	    (diseqlist_149 (cons_149 x_34583 x_34584) (cons_149 x_34585 x_34586)))))
(declare-fun ordered_13 (Bool_215 list_149) Bool)
(assert (forall ((x_34547 Bool_215) (y_1366 Nat_371) (xs_401 list_149) (y_1365 Nat_371))
	(=>	(and (le_215 y_1365 y_1366)
			(ordered_13 x_34547 (cons_149 y_1366 xs_401)))
		(ordered_13 x_34547 (cons_149 y_1365 (cons_149 y_1366 xs_401))))))
(assert (forall ((y_1366 Nat_371) (xs_401 list_149) (y_1365 Nat_371))
	(=> (gt_218 y_1365 y_1366)
	    (ordered_13 false_215 (cons_149 y_1365 (cons_149 y_1366 xs_401))))))
(assert (forall ((y_1365 Nat_371))
	(ordered_13 true_215 (cons_149 y_1365 nil_168))))
(assert (ordered_13 true_215 nil_168))
(declare-fun insert_17 (list_149 Nat_371 list_149) Bool)
(assert (forall ((z_1266 Nat_371) (xs_402 list_149) (x_34545 Nat_371))
	(=> (le_215 x_34545 z_1266)
	    (insert_17 (cons_149 x_34545 (cons_149 z_1266 xs_402)) x_34545 (cons_149 z_1266 xs_402)))))
(assert (forall ((x_34554 list_149) (z_1266 Nat_371) (xs_402 list_149) (x_34545 Nat_371))
	(=>	(and (gt_218 x_34545 z_1266)
			(insert_17 x_34554 x_34545 xs_402))
		(insert_17 (cons_149 z_1266 x_34554) x_34545 (cons_149 z_1266 xs_402)))))
(assert (forall ((x_34545 Nat_371))
	(insert_17 (cons_149 x_34545 nil_168) x_34545 nil_168)))
(declare-fun isort_17 (list_149 list_149) Bool)
(assert (forall ((x_34556 list_149) (x_34557 list_149) (y_1368 Nat_371) (xs_403 list_149))
	(=>	(and (isort_17 x_34557 xs_403)
			(insert_17 x_34556 y_1368 x_34557))
		(isort_17 x_34556 (cons_149 y_1368 xs_403)))))
(assert (isort_17 nil_168 nil_168))
(assert (forall ((x_34560 list_149) (xs_404 list_149))
	(=>	(and true
			(isort_17 x_34560 xs_404)
			(ordered_13 false_215 x_34560))
		false)))
(check-sat)
